minizinc/sudoku_problems2/sudoku_p43.dzn
%
% sudoku_p43.dzn
% See http://www.hakank.org/minizinc/sudoku_gcc.mzn
% 
% This problem is problem 43 from
% Gecode's sudoku.cpp
% http://www.gecode.org/gecode-doc-latest/sudoku_8cpp-source.html
% 
x = array2d(1..n, 1..n, [   
% http://janko.at/Raetsel/Sudoku/310.a.htm
% 43
  _,  _,  _,  4,  _,  1,  _,  9,  _,  _,  7,  _,  _,  _, 11,  5,
  6, 14,  _,  _,  2,  _,  8,  _,  _,  _,  _, 12, 16, 10,  _,  _,
  _,  5,  1,  _,  _,  _,  _, 11,  _, 13,  _,  _,  _,  _,  6,  _,
 11,  _,  9,  _,  _, 14,  _,  _, 16,  _,  _, 10,  _,  _,  _,  7,
  _,  _,  7,  _,  5, 15,  9, 16,  _,  _,  4,  8,  _,  _,  _,  _,
  _,  _,  2,  9,  _,  _,  3,  _,  _, 15,  _,  _,  5,  _,  7,  _,
 16,  _, 11, 13,  _,  _,  _,  8,  3,  7,  _, 14,  _,  _,  9,  4,
  _,  _,  _,  _,  _,  _,  7, 14,  _,  1,  _,  6, 10,  2, 16,  3,
  9,  4, 16, 10,  7,  _,  2,  _,  6,  3,  _,  _,  _,  _,  _,  _,
  5, 11,  _,  _, 10,  _, 14,  1,  8,  _,  _,  _,  7,  9,  _,  2,
  _,  1,  _,  8,  _,  _,  6,  _,  _,  4,  _,  _, 11, 13,  _,  _,
  _,  _,  _,  _, 16,  8,  _,  _, 14, 11,  9,  2,  _,  4,  _,  _,
 13,  _,  _,  _,  9,  _,  _, 10,  _,  _,  1,  _,  _, 16,  _,  6,
  _,  3,  _,  _,  _,  _,  4,  _, 12,  _,  _,  _,  _,  1, 14,  _,
  _,  _,  4, 11,  6,  _,  _,  _,  _, 14,  _,  7,  _,  _,  2, 10,
 15,  9,  _,  _,  _,  5,  _,  _, 10,  _,  3,  _,  4,  _,  _,  _
]);

n = 16;


